#LAMMPS input for modeling an interface between Al+3
#and Au+7, along with their free electrons, starting
#from an initial temperature of 100eV for electrons
#and 10 eV for both ion species.

units metal

#mass = grams/mole
#distance = Angstroms
#time = picoseconds
#energy = eV
#velocity = Angstroms/picosecond
#force = eV/Angstrom
#torque = eV
#temperature = Kelvin
#pressure = bars
#dynamic viscosity = Poise
#charge = multiple of electron charge (1.0 is a proton)
#dipole = charge*Angstroms
#electric field = volts/Angstrom
#density = gram/cm^dim

dimension 3
boundary p p f
atom_style tcharge


read_data data.timd

region Al_domain block 0 27 0 27 0 26.5
region Au_domain block 0 27 0 27 26.5 53

mass 1 5.4858e-4
mass 2 26.981
mass 3 196.967

set type 1 charge -1.0
set type 2 charge 3.0
set type 3 charge 7.0

set type 1 temp 1.1604525e6
set type 2 temp 1.1604525e5
set type 3 temp 1.1604525e5

pair_style hybrid/overlay qsp/f qsp/kelbg coul/long 1
pair_coeff * * coul/long

#qsp/f interactions. Second argument = 1, means this is on for this pair interaction
pair_coeff 1 1 qsp/f 1 1
pair_coeff 1 2 qsp/f 1 0
pair_coeff 1 3 qsp/f 1 0
pair_coeff 2 3 qsp/f 1 0

#qsp/kelbg interactions. 
#pair_coeff type1 type2 qsp/kelbg cutoff style on (or off=0)
pair_coeff 1 1 qsp/kelbg 1 0 1
pair_coeff 1 2 qsp/kelbg 1 0 1
pair_coeff 1 3 qsp/kelbg 1 0 1
pair_coeff 2 3 qsp/kelbg 1 0 0

kspace_style pppm 1e-4
kspace_modify slab 3.0

fix microcanonical_ensemble all nve
timestep 5e-8

neigh_modify one 3000
neigh_modify delay 0 every 1 check yes

group electrons type 1
group al type 2
group au type 3
group alpart region Al_domain
group aupart region Au_domain
group al_electrons intersect electrons alpart
group au_electrons intersect electrons aupart

fix zwall all wall/reflect zlo EDGE zhi EDGE
fix al_partition alpart wall/reflect zhi 26.5
fix au_partition aupart wall/reflect zlo 26.5 

fix al_temp al temp/csvr 0 1.1604525e5 2000 1
fix au_temp au temp/csvr 0 1.1604525e5 2000 2
fix al_e_temp al_electrons temp/csvr 0 1.1604525e6 2000 3
fix au_e_temp au_electrons temp/csvr 0 1.1604525e6 2000 4

dump dumpfix all custom 10 /ThermostatRun/ThermostatOut* id type mass q temp x y z vx vy vz fx fy fz 
dump_modify dumpfix first yes
run 2000
