#LAMMPS input for modeling an interface between Al+3
#and Au+7, along with their free electrons, starting
#from an initial temperature of 100eV for electrons
#and 10 eV for both ion species.

units metal

#mass = grams/mole
#distance = Angstroms
#time = picoseconds
#energy = eV
#velocity = Angstroms/picosecond
#force = eV/Angstrom
#torque = eV
#temperature = Kelvin
#pressure = bars
#dynamic viscosity = Poise
#charge = multiple of electron charge (1.0 is a proton)
#dipole = charge*Angstroms
#electric field = volts/Angstrom
#density = gram/cm^dim

dimension 3
boundary p p p
atom_style tcharge


read_data sim_input_data.timd

pair_style hybrid/overlay qsp/f qsp/kelbg coul/long 2
pair_coeff * * coul/long

#qsp/f interactions. Second argument = 1, means this is on for this pair interaction
pair_coeff 1 1 qsp/f 1 1
pair_coeff 1 2 qsp/f 1 0
pair_coeff 1 3 qsp/f 1 0
pair_coeff 2 3 qsp/f 1 0

#qsp/kelbg interactions. 
#pair_coeff type1 type2 qsp/kelbg cutoff style on (or off=0)
pair_coeff 1 1 qsp/kelbg 2 0 1
pair_coeff 1 2 qsp/kelbg 2 0 1
pair_coeff 1 3 qsp/kelbg 2 0 1
pair_coeff 2 3 qsp/kelbg 2 0 0

kspace_style pppm 1e-4

fix microcanonical_ensemble all nve
timestep 1e-6

neigh_modify delay 0 every 1 check yes


dump dumpfix all custom 10 NoLTemp/Out* id type mass q temp x y z vx vy vz fx fy fz 
dump_modify dumpfix first yes
run 2000
